NAME           ex_lp2.ltx
*****************************************************
* REMARK: Generated by LSwriteMPSFile() routine for 
* a maximization type problem.
*
* The objective coefficients have flipped signs. 
* Interpret the objective value from the solution of
* this model accordingly.
*****************************************************
ROWS
 N       OBJ
 L  R1
 L  R2
COLUMNS
    x0       OBJ  -3
    x0  R1  -2
    x1       OBJ  -10
    x1  R1  -2
    x1  R2  -6
    x2  R2  -2
RHS
    RHS1      R1  -1
    RHS1      R2  -8
BOUNDS
 FR BND1      x0
 FR BND1      x1
 FR BND1      x2
QSECTION           OBJ
    x0  x0  4
    x0  x2  -2
    x1  x1  6
    x1  x2  -5
    x2  x2  8
QSECTION      R1
    x0  x0  2
    x1  x1  2
QSECTION      R2
    x1  x1  2
    x2  x2  2
ENDATA
